(set-logic HORN)
(declare-fun assign_27_11_286_abs01 (Int Int Int Int Int Int Int) Bool)
(declare-fun assert_26_11_277_abs01 (Int Int Int Int Int Int Int) Bool)
(declare-fun assert_25_11_256_abs01 (Int Int Int Int Int Int Int) Bool)
(declare-fun while_24_1_289_abs01 (Int Int Int Int Int Int Int) Bool)
(declare-fun assign_23_8_206_abs01 (Int Int Int Int Int Int Int) Bool)
(declare-fun assert_21_8_200_abs01 (Int Int Int Int Int Int Int) Bool)
(declare-fun assign_19_5_158_abs01 (Int Int Int Int Int Int Int) Bool)
(declare-fun arrayassign_18_5_149_abs01 (Int Int Int Int Int Int Int) Bool)
(declare-fun assert_17_12_132_abs01 (Int Int Int Int Int Int Int) Bool)
(declare-fun while_16_1_161_abs01 (Int Int Int Int Int Int Int) Bool)
(declare-fun assign_15_1_85_abs01 (Int Int Int Int Int Int Int) Bool)
(declare-fun assign_12_8_79_abs01 (Int Int Int Int Int Int Int) Bool)
(declare-fun assign_11_1_67_abs01 (Int Int Int Int Int Int Int) Bool)
(declare-fun end_abs01 (Int Int Int Int Int Int Int) Bool)
(declare-fun start_abs01 (Int Int Int Int Int Int Int) Bool)
(assert (forall ((Nb Int) (Na Int) (i Int) (vabs_f_f Int) (vabs_s_f_f Int) (b_select Int) (a_select Int)) (start_abs01 vabs_f_f b_select vabs_s_f_f a_select Nb Na i)))
(assert (forall ((i Int) (Na Int) (Nb Int) (vabs_0_f_f Int) (vabs_0_s_f_f Int) (a_select Int) (b_select Int)) (=> (start_abs01 vabs_0_f_f b_select vabs_0_s_f_f a_select Nb Na i) (assign_11_1_67_abs01 vabs_0_f_f b_select vabs_0_s_f_f a_select Nb Na i))))
(assert (forall ((rnd Int) (i Int) (Na Int) (Nb Int) (vabs_0_f_f Int) (vabs_0_s_f_f Int) (a_select Int) (b_select Int)) (=> (assign_11_1_67_abs01 vabs_0_f_f b_select vabs_0_s_f_f a_select Nb Na i) (assign_12_8_79_abs01 vabs_0_f_f b_select vabs_0_s_f_f a_select Nb rnd i))))
(assert (forall ((rnd Int) (i Int) (Na Int) (Nb Int) (vabs_0_f_f Int) (vabs_0_s_f_f Int) (a_select Int) (b_select Int)) (=> (assign_12_8_79_abs01 vabs_0_f_f b_select vabs_0_s_f_f a_select Nb Na i) (assign_15_1_85_abs01 vabs_0_f_f b_select vabs_0_s_f_f a_select rnd Na i))))
(assert (forall ((i Int) (Na Int) (Nb Int) (vabs_0_f_f Int) (vabs_0_s_f_f Int) (a_select Int) (b_select Int)) (=> (assign_15_1_85_abs01 vabs_0_f_f b_select vabs_0_s_f_f a_select Nb Na i) (while_16_1_161_abs01 vabs_0_f_f b_select vabs_0_s_f_f a_select Nb Na Na))))
(assert (forall ((Nb Int) (Na Int) (i Int) (vabs_0_f_f Int) (vabs_0_s_f_f Int) (b_select Int) (a_select Int)) (=> (and (while_16_1_161_abs01 vabs_0_f_f b_select vabs_0_s_f_f a_select Nb Na i) (< i (+ Na Nb))) (assert_17_12_132_abs01 vabs_0_f_f b_select vabs_0_s_f_f a_select Nb Na i))))
(assert (forall ((Nb Int) (Na Int) (i Int) (vabs_0_f_f Int) (vabs_0_s_f_f Int) (b_select Int) (a_select Int)) (=> (and (while_16_1_161_abs01 vabs_0_f_f b_select vabs_0_s_f_f a_select Nb Na i) (not (< i (+ Na Nb)))) (assert_21_8_200_abs01 vabs_0_f_f b_select vabs_0_s_f_f a_select Nb Na i))))
(assert (forall ((k Int) (i Int) (Na Int) (Nb Int) (a_select Int) (b_select Int)) (=> (and (assert_17_12_132_abs01 (- k Na) b_select k a_select Nb Na i) (<= Na k) (< k i)) (= a_select b_select))))
(assert (forall ((i Int) (Na Int) (Nb Int) (vabs_0_f_f Int) (vabs_0_s_f_f Int) (a_select Int) (b_select Int)) (=> (assert_17_12_132_abs01 vabs_0_f_f b_select vabs_0_s_f_f a_select Nb Na i) (arrayassign_18_5_149_abs01 vabs_0_f_f b_select vabs_0_s_f_f a_select Nb Na i))))
(assert (forall ((i Int) (Na Int) (Nb Int) (vabs_0_f_f Int) (vabs_0_s_f_f Int) (a_select Int) (b_select_0 Int) (b_select Int)) (=> (and (=> (= vabs_0_f_f (- i Na)) (= b_select b_select_0)) (arrayassign_18_5_149_abs01 (- i Na) b_select vabs_0_s_f_f a_select Nb Na i) (arrayassign_18_5_149_abs01 vabs_0_f_f b_select_0 vabs_0_s_f_f a_select Nb Na i)) (assign_19_5_158_abs01 vabs_0_f_f b_select_0 vabs_0_s_f_f (ite (= i vabs_0_s_f_f) b_select a_select) Nb Na i))))
(assert (forall ((i Int) (Na Int) (Nb Int) (vabs_0_f_f Int) (vabs_0_s_f_f Int) (a_select Int) (b_select Int)) (=> (assign_19_5_158_abs01 vabs_0_f_f b_select vabs_0_s_f_f a_select Nb Na i) (while_16_1_161_abs01 vabs_0_f_f b_select vabs_0_s_f_f a_select Nb Na (+ i 1)))))
(assert (forall ((k Int) (i Int) (Na Int) (Nb Int) (a_select Int) (b_select Int)) (=> (and (assert_21_8_200_abs01 (- k Na) b_select k a_select Nb Na i) (<= Na k) (< k (+ Na Nb))) (= a_select b_select))))
(assert (forall ((i Int) (Na Int) (Nb Int) (vabs_0_f_f Int) (vabs_0_s_f_f Int) (a_select Int) (b_select Int)) (=> (assert_21_8_200_abs01 vabs_0_f_f b_select vabs_0_s_f_f a_select Nb Na i) (assign_23_8_206_abs01 vabs_0_f_f b_select vabs_0_s_f_f a_select Nb Na i))))
(assert (forall ((i Int) (Na Int) (Nb Int) (vabs_0_f_f Int) (vabs_0_s_f_f Int) (a_select Int) (b_select Int)) (=> (assign_23_8_206_abs01 vabs_0_f_f b_select vabs_0_s_f_f a_select Nb Na i) (while_24_1_289_abs01 vabs_0_f_f b_select vabs_0_s_f_f a_select Nb Na Na))))
(assert (forall ((Nb Int) (Na Int) (i Int) (vabs_0_f_f Int) (vabs_0_s_f_f Int) (b_select Int) (a_select Int)) (=> (and (while_24_1_289_abs01 vabs_0_f_f b_select vabs_0_s_f_f a_select Nb Na i) (< i (+ Na Nb))) (assert_25_11_256_abs01 vabs_0_f_f b_select vabs_0_s_f_f a_select Nb Na i))))
(assert (forall ((Nb Int) (Na Int) (i Int) (vabs_0_f_f Int) (vabs_0_s_f_f Int) (b_select Int) (a_select Int)) (=> (and (while_24_1_289_abs01 vabs_0_f_f b_select vabs_0_s_f_f a_select Nb Na i) (not (< i (+ Na Nb)))) (end_abs01 vabs_0_f_f b_select vabs_0_s_f_f a_select Nb Na i))))
(assert (forall ((k Int) (i Int) (Na Int) (Nb Int) (a_select Int) (b_select Int)) (=> (and (assert_25_11_256_abs01 (- k Na) b_select k a_select Nb Na i) (<= Na k) (< k (+ Na Nb))) (= a_select b_select))))
(assert (forall ((i Int) (Na Int) (Nb Int) (vabs_0_f_f Int) (vabs_0_s_f_f Int) (a_select Int) (b_select Int)) (=> (assert_25_11_256_abs01 vabs_0_f_f b_select vabs_0_s_f_f a_select Nb Na i) (assert_26_11_277_abs01 vabs_0_f_f b_select vabs_0_s_f_f a_select Nb Na i))))
(assert (forall ((i Int) (Na Int) (Nb Int) (a_select Int) (b_select Int)) (=> (assert_26_11_277_abs01 (- i Na) b_select i a_select Nb Na i) (= a_select b_select))))
(assert (forall ((i Int) (Na Int) (Nb Int) (vabs_0_f_f Int) (vabs_0_s_f_f Int) (a_select Int) (b_select Int)) (=> (assert_26_11_277_abs01 vabs_0_f_f b_select vabs_0_s_f_f a_select Nb Na i) (assign_27_11_286_abs01 vabs_0_f_f b_select vabs_0_s_f_f a_select Nb Na i))))
(assert (forall ((i Int) (Na Int) (Nb Int) (vabs_0_f_f Int) (vabs_0_s_f_f Int) (a_select Int) (b_select Int)) (=> (assign_27_11_286_abs01 vabs_0_f_f b_select vabs_0_s_f_f a_select Nb Na i) (while_24_1_289_abs01 vabs_0_f_f b_select vabs_0_s_f_f a_select Nb Na (+ i 1)))))
(check-sat)